1648814400
1648828800
1649052000
1649090700
1649167200
1649174400
1649253600
1649260800
1649340000
1649347200
1649419200
1649433600
1649944800
1649952000
1650376800
1650384000
1650463200
1650470400
1650549600
1650556800
1650628800
1650643200
1650880800
1650888000
1650981600
1650988800
1651068000
1651075200
1651154400
1651161600
1651233600
1651248000
